c nIsolatedPIs 0
c maxPI 128
p cnf 649 1564
c gate 129 -17 -18 0
-17 -129 0
-18 -129 0
17 18 129 0
c gate 130 -19 -20 0
-19 -130 0
-20 -130 0
19 20 130 0
c gate 131 129 130 0
129 -131 0
130 -131 0
-129 -130 131 0
c gate 132 23 -25 0
23 -132 0
-25 -132 0
-23 25 132 0
c gate 133 -23 25 0
-23 -133 0
25 -133 0
23 -25 133 0
c gate 134 -132 -133 0
-132 -134 0
-133 -134 0
132 133 134 0
c gate 135 -21 134 0
-21 -135 0
134 -135 0
21 -134 135 0
c gate 136 21 -134 0
21 -136 0
-134 -136 0
-21 134 136 0
c gate 137 -26 -27 0
-26 -137 0
-27 -137 0
26 27 137 0
c gate 138 26 27 0
26 -138 0
27 -138 0
-26 -27 138 0
c gate 139 -137 -138 0
-137 -139 0
-138 -139 0
137 138 139 0
c gate 140 -136 -139 0
-136 -140 0
-139 -140 0
136 139 140 0
c gate 141 -135 140 0
-135 -141 0
140 -141 0
135 -140 141 0
c gate 142 -23 -27 0
-23 -142 0
-27 -142 0
23 27 142 0
c gate 143 23 27 0
23 -143 0
27 -143 0
-23 -27 143 0
c gate 144 -142 -143 0
-142 -144 0
-143 -144 0
142 143 144 0
c gate 145 -22 -144 0
-22 -145 0
-144 -145 0
22 144 145 0
c gate 146 22 133 0
22 -146 0
133 -146 0
-22 -133 146 0
c gate 147 -21 -26 0
-21 -147 0
-26 -147 0
21 26 147 0
c gate 148 -132 147 0
-132 -148 0
147 -148 0
132 -147 148 0
c gate 149 -146 148 0
-146 -149 0
148 -149 0
146 -148 149 0
c gate 150 -145 149 0
-145 -150 0
149 -150 0
145 -149 150 0
c gate 151 -26 136 0
-26 -151 0
136 -151 0
26 -136 151 0
c gate 152 -23 -25 0
-23 -152 0
-25 -152 0
23 25 152 0
c gate 153 -21 26 0
-21 -153 0
26 -153 0
21 -26 153 0
c gate 154 152 153 0
152 -154 0
153 -154 0
-152 -153 154 0
c gate 155 -151 -154 0
-151 -155 0
-154 -155 0
151 154 155 0
c gate 156 -150 155 0
-150 -156 0
155 -156 0
150 -155 156 0
c gate 157 -141 156 0
-141 -157 0
156 -157 0
141 -156 157 0
c gate 158 131 157 0
131 -158 0
157 -158 0
-131 -157 158 0
c gate 159 -30 -31 0
-30 -159 0
-31 -159 0
30 31 159 0
c gate 160 -28 -29 0
-28 -160 0
-29 -160 0
28 29 160 0
c gate 161 159 160 0
159 -161 0
160 -161 0
-159 -160 161 0
c gate 162 -32 -33 0
-32 -162 0
-33 -162 0
32 33 162 0
c gate 163 137 162 0
137 -163 0
162 -163 0
-137 -162 163 0
c gate 164 161 163 0
161 -164 0
163 -164 0
-161 -163 164 0
c gate 165 158 164 0
158 -165 0
164 -165 0
-158 -164 165 0
c gate 166 -15 -16 0
-15 -166 0
-16 -166 0
15 16 166 0
c gate 167 -12 -14 0
-12 -167 0
-14 -167 0
12 14 167 0
c gate 168 166 167 0
166 -168 0
167 -168 0
-166 -167 168 0
c gate 169 -10 -11 0
-10 -169 0
-11 -169 0
10 11 169 0
c gate 170 -8 -9 0
-8 -170 0
-9 -170 0
8 9 170 0
c gate 171 169 170 0
169 -171 0
170 -171 0
-169 -170 171 0
c gate 172 168 171 0
168 -172 0
171 -172 0
-168 -171 172 0
c gate 173 -4 -5 0
-4 -173 0
-5 -173 0
4 5 173 0
c gate 174 -126 -127 0
-126 -174 0
-127 -174 0
126 127 174 0
c gate 175 173 174 0
173 -175 0
174 -175 0
-173 -174 175 0
c gate 176 -6 -7 0
-6 -176 0
-7 -176 0
6 7 176 0
c gate 177 -3 -128 0
-3 -177 0
-128 -177 0
3 128 177 0
c gate 178 176 177 0
176 -178 0
177 -178 0
-176 -177 178 0
c gate 179 175 178 0
175 -179 0
178 -179 0
-175 -178 179 0
c gate 180 172 179 0
172 -180 0
179 -180 0
-172 -179 180 0
c gate 181 165 180 0
165 -181 0
180 -181 0
-165 -180 181 0
c gate 182 -111 -112 0
-111 -182 0
-112 -182 0
111 112 182 0
c gate 183 -124 -125 0
-124 -183 0
-125 -183 0
124 125 183 0
c gate 184 -122 -123 0
-122 -184 0
-123 -184 0
122 123 184 0
c gate 185 183 184 0
183 -185 0
184 -185 0
-183 -184 185 0
c gate 186 -117 -119 0
-117 -186 0
-119 -186 0
117 119 186 0
c gate 187 -120 -121 0
-120 -187 0
-121 -187 0
120 121 187 0
c gate 188 186 187 0
186 -188 0
187 -188 0
-186 -187 188 0
c gate 189 185 188 0
185 -189 0
188 -189 0
-185 -188 189 0
c gate 190 180 -189 0
180 -190 0
-189 -190 0
-180 189 190 0
c gate 191 -115 -116 0
-115 -191 0
-116 -191 0
115 116 191 0
c gate 192 -113 -114 0
-113 -192 0
-114 -192 0
113 114 192 0
c gate 193 191 192 0
191 -193 0
192 -193 0
-191 -192 193 0
c gate 194 -190 193 0
-190 -194 0
193 -194 0
190 -193 194 0
c gate 195 182 194 0
182 -195 0
194 -195 0
-182 -194 195 0
c gate 196 105 -106 0
105 -196 0
-106 -196 0
-105 106 196 0
c gate 197 -108 -196 0
-108 -197 0
-196 -197 0
108 196 197 0
c gate 198 -109 -197 0
-109 -198 0
-197 -198 0
109 197 198 0
c gate 199 -110 -198 0
-110 -199 0
-198 -199 0
110 198 199 0
c gate 200 -109 -110 0
-109 -200 0
-110 -200 0
109 110 200 0
c gate 201 -106 -108 0
-106 -201 0
-108 -201 0
106 108 201 0
c gate 202 -104 -105 0
-104 -202 0
-105 -202 0
104 105 202 0
c gate 203 201 202 0
201 -203 0
202 -203 0
-201 -202 203 0
c gate 204 200 203 0
200 -204 0
203 -204 0
-200 -203 204 0
c gate 205 101 -102 0
101 -205 0
-102 -205 0
-101 102 205 0
c gate 206 -103 -205 0
-103 -206 0
-205 -206 0
103 205 206 0
c gate 207 -93 -94 0
-93 -207 0
-94 -207 0
93 94 207 0
c gate 208 -98 -99 0
-98 -208 0
-99 -208 0
98 99 208 0
c gate 209 -95 -97 0
-95 -209 0
-97 -209 0
95 97 209 0
c gate 210 208 209 0
208 -210 0
209 -210 0
-208 -209 210 0
c gate 211 207 210 0
207 -211 0
210 -211 0
-207 -210 211 0
c gate 212 90 -91 0
90 -212 0
-91 -212 0
-90 91 212 0
c gate 213 -92 -212 0
-92 -213 0
-212 -213 0
92 212 213 0
c gate 214 -91 -92 0
-91 -214 0
-92 -214 0
91 92 214 0
c gate 215 -89 -90 0
-89 -215 0
-90 -215 0
89 90 215 0
c gate 216 214 215 0
214 -216 0
215 -216 0
-214 -215 216 0
c gate 217 83 -84 0
83 -217 0
-84 -217 0
-83 84 217 0
c gate 218 -86 -217 0
-86 -218 0
-217 -218 0
86 217 218 0
c gate 219 -87 -218 0
-87 -219 0
-218 -219 0
87 218 219 0
c gate 220 -88 -219 0
-88 -220 0
-219 -220 0
88 219 220 0
c gate 221 -84 -86 0
-84 -221 0
-86 -221 0
84 86 221 0
c gate 222 -82 -83 0
-82 -222 0
-83 -222 0
82 83 222 0
c gate 223 221 222 0
221 -223 0
222 -223 0
-221 -222 223 0
c gate 224 -87 -88 0
-87 -224 0
-88 -224 0
87 88 224 0
c gate 225 223 224 0
223 -225 0
224 -225 0
-223 -224 225 0
c gate 226 79 -80 0
79 -226 0
-80 -226 0
-79 80 226 0
c gate 227 -81 -226 0
-81 -227 0
-226 -227 0
81 226 227 0
c gate 228 -80 -81 0
-80 -228 0
-81 -228 0
80 81 228 0
c gate 229 -78 -79 0
-78 -229 0
-79 -229 0
78 79 229 0
c gate 230 228 229 0
228 -230 0
229 -230 0
-228 -229 230 0
c gate 231 72 -73 0
72 -231 0
-73 -231 0
-72 73 231 0
c gate 232 -75 -231 0
-75 -232 0
-231 -232 0
75 231 232 0
c gate 233 -76 -232 0
-76 -233 0
-232 -233 0
76 232 233 0
c gate 234 -77 -233 0
-77 -234 0
-233 -234 0
77 233 234 0
c gate 235 -73 -75 0
-73 -235 0
-75 -235 0
73 75 235 0
c gate 236 -76 -77 0
-76 -236 0
-77 -236 0
76 77 236 0
c gate 237 235 236 0
235 -237 0
236 -237 0
-235 -236 237 0
c gate 238 -71 -72 0
-71 -238 0
-72 -238 0
71 72 238 0
c gate 239 237 238 0
237 -239 0
238 -239 0
-237 -238 239 0
c gate 240 61 -62 0
61 -240 0
-62 -240 0
-61 62 240 0
c gate 241 -64 -240 0
-64 -241 0
-240 -241 0
64 240 241 0
c gate 242 -65 -241 0
-65 -242 0
-241 -242 0
65 241 242 0
c gate 243 -66 -242 0
-66 -243 0
-242 -243 0
66 242 243 0
c gate 244 -65 -66 0
-65 -244 0
-66 -244 0
65 66 244 0
c gate 245 -62 -64 0
-62 -245 0
-64 -245 0
62 64 245 0
c gate 246 -60 -240 0
-60 -246 0
-240 -246 0
60 240 246 0
c gate 247 245 246 0
245 -247 0
246 -247 0
-245 -246 247 0
c gate 248 244 247 0
244 -248 0
247 -248 0
-244 -247 248 0
c gate 249 57 -58 0
57 -249 0
-58 -249 0
-57 58 249 0
c gate 250 -59 -249 0
-59 -250 0
-249 -250 0
59 249 250 0
c gate 251 53 -54 0
53 -251 0
-54 -251 0
-53 54 251 0
c gate 252 -55 -251 0
-55 -252 0
-251 -252 0
55 251 252 0
c gate 253 46 -47 0
46 -253 0
-47 -253 0
-46 47 253 0
c gate 254 -48 -253 0
-48 -254 0
-253 -254 0
48 253 254 0
c gate 255 -45 -46 0
-45 -255 0
-46 -255 0
45 46 255 0
c gate 256 -47 -48 0
-47 -256 0
-48 -256 0
47 48 256 0
c gate 257 255 256 0
255 -257 0
256 -257 0
-255 -256 257 0
c gate 258 -40 -42 0
-40 -258 0
-42 -258 0
40 42 258 0
c gate 259 -38 -39 0
-38 -259 0
-39 -259 0
38 39 259 0
c gate 260 258 259 0
258 -260 0
259 -260 0
-258 -259 260 0
c gate 261 -36 -37 0
-36 -261 0
-37 -261 0
36 37 261 0
c gate 262 -34 -35 0
-34 -262 0
-35 -262 0
34 35 262 0
c gate 263 261 262 0
261 -263 0
262 -263 0
-261 -262 263 0
c gate 264 41 -52 0
41 -264 0
-52 -264 0
-41 52 264 0
c gate 265 -63 -264 0
-63 -265 0
-264 -265 0
63 264 265 0
c gate 266 -74 -265 0
-74 -266 0
-265 -266 0
74 265 266 0
c gate 267 -85 -266 0
-85 -267 0
-266 -267 0
85 266 267 0
c gate 268 -96 -267 0
-96 -268 0
-267 -268 0
96 267 268 0
c gate 269 -107 -268 0
-107 -269 0
-268 -269 0
107 268 269 0
c gate 270 -118 -269 0
-118 -270 0
-269 -270 0
118 269 270 0
c gate 271 -2 -270 0
-2 -271 0
-270 -271 0
2 270 271 0
c gate 272 -13 -271 0
-13 -272 0
-271 -272 0
13 271 272 0
c gate 273 -24 -272 0
-24 -273 0
-272 -273 0
24 272 273 0
c gate 274 263 -273 0
263 -274 0
-273 -274 0
-263 273 274 0
c gate 275 35 -36 0
35 -275 0
-36 -275 0
-35 36 275 0
c gate 276 -37 -275 0
-37 -276 0
-275 -276 0
37 275 276 0
c gate 277 -274 276 0
-274 -277 0
276 -277 0
274 -276 277 0
c gate 278 260 -277 0
260 -278 0
-277 -278 0
-260 277 278 0
c gate 279 39 -40 0
39 -279 0
-40 -279 0
-39 40 279 0
c gate 280 -42 -279 0
-42 -280 0
-279 -280 0
42 279 280 0
c gate 281 -278 280 0
-278 -281 0
280 -281 0
278 -280 281 0
c gate 282 -43 -281 0
-43 -282 0
-281 -282 0
43 281 282 0
c gate 283 -44 -282 0
-44 -283 0
-282 -283 0
44 282 283 0
c gate 284 257 -283 0
257 -284 0
-283 -284 0
-257 283 284 0
c gate 285 254 -284 0
254 -285 0
-284 -285 0
-254 284 285 0
c gate 286 -49 -285 0
-49 -286 0
-285 -286 0
49 285 286 0
c gate 287 -50 -286 0
-50 -287 0
-286 -287 0
50 286 287 0
c gate 288 -54 -55 0
-54 -288 0
-55 -288 0
54 55 288 0
c gate 289 -51 -53 0
-51 -289 0
-53 -289 0
51 53 289 0
c gate 290 288 289 0
288 -290 0
289 -290 0
-288 -289 290 0
c gate 291 -287 290 0
-287 -291 0
290 -291 0
287 -290 291 0
c gate 292 252 -291 0
252 -292 0
-291 -292 0
-252 291 292 0
c gate 293 -58 -59 0
-58 -293 0
-59 -293 0
58 59 293 0
c gate 294 -56 -57 0
-56 -294 0
-57 -294 0
56 57 294 0
c gate 295 293 294 0
293 -295 0
294 -295 0
-293 -294 295 0
c gate 296 -292 295 0
-292 -296 0
295 -296 0
292 -295 296 0
c gate 297 250 -296 0
250 -297 0
-296 -297 0
-250 296 297 0
c gate 298 248 -297 0
248 -298 0
-297 -298 0
-248 297 298 0
c gate 299 243 -298 0
243 -299 0
-298 -299 0
-243 298 299 0
c gate 300 -67 -299 0
-67 -300 0
-299 -300 0
67 299 300 0
c gate 301 -68 -300 0
-68 -301 0
-300 -301 0
68 300 301 0
c gate 302 -69 -301 0
-69 -302 0
-301 -302 0
69 301 302 0
c gate 303 -70 -302 0
-70 -303 0
-302 -303 0
70 302 303 0
c gate 304 239 -303 0
239 -304 0
-303 -304 0
-239 303 304 0
c gate 305 234 -304 0
234 -305 0
-304 -305 0
-234 304 305 0
c gate 306 230 -305 0
230 -306 0
-305 -306 0
-230 305 306 0
c gate 307 227 -306 0
227 -307 0
-306 -307 0
-227 306 307 0
c gate 308 225 -307 0
225 -308 0
-307 -308 0
-225 307 308 0
c gate 309 220 -308 0
220 -309 0
-308 -309 0
-220 308 309 0
c gate 310 216 -309 0
216 -310 0
-309 -310 0
-216 309 310 0
c gate 311 213 -310 0
213 -311 0
-310 -311 0
-213 310 311 0
c gate 312 211 -311 0
211 -312 0
-311 -312 0
-211 311 312 0
c gate 313 94 210 0
94 -313 0
210 -313 0
-94 -210 313 0
c gate 314 97 -98 0
97 -314 0
-98 -314 0
-97 98 314 0
c gate 315 -99 -314 0
-99 -315 0
-314 -315 0
99 314 315 0
c gate 316 -313 315 0
-313 -316 0
315 -316 0
313 -315 316 0
c gate 317 -312 316 0
-312 -317 0
316 -317 0
312 -316 317 0
c gate 318 -102 -103 0
-102 -318 0
-103 -318 0
102 103 318 0
c gate 319 -100 -101 0
-100 -319 0
-101 -319 0
100 101 319 0
c gate 320 318 319 0
318 -320 0
319 -320 0
-318 -319 320 0
c gate 321 -317 320 0
-317 -321 0
320 -321 0
317 -320 321 0
c gate 322 206 -321 0
206 -322 0
-321 -322 0
-206 321 322 0
c gate 323 204 -322 0
204 -323 0
-322 -323 0
-204 322 323 0
c gate 324 199 -323 0
199 -324 0
-323 -324 0
-199 323 324 0
c gate 325 195 -324 0
195 -325 0
-324 -325 0
-195 324 325 0
c gate 326 114 -115 0
114 -326 0
-115 -326 0
-114 115 326 0
c gate 327 -116 -326 0
-116 -327 0
-326 -327 0
116 326 327 0
c gate 328 -117 -327 0
-117 -328 0
-327 -328 0
117 327 328 0
c gate 329 -119 -328 0
-119 -329 0
-328 -329 0
119 328 329 0
c gate 330 -120 -329 0
-120 -330 0
-329 -330 0
120 329 330 0
c gate 331 -121 -330 0
-121 -331 0
-330 -331 0
121 330 331 0
c gate 332 -122 -331 0
-122 -332 0
-331 -332 0
122 331 332 0
c gate 333 -123 -332 0
-123 -333 0
-332 -333 0
123 332 333 0
c gate 334 -124 -333 0
-124 -334 0
-333 -334 0
124 333 334 0
c gate 335 112 194 0
112 -335 0
194 -335 0
-112 -194 335 0
c gate 336 -125 -335 0
-125 -336 0
-335 -336 0
125 335 336 0
c gate 337 -334 336 0
-334 -337 0
336 -337 0
334 -336 337 0
c gate 338 -325 337 0
-325 -338 0
337 -338 0
325 -337 338 0
c gate 339 181 -338 0
181 -339 0
-338 -339 0
-181 338 339 0
c gate 340 254 -257 0
254 -340 0
-257 -340 0
-254 257 340 0
c gate 341 -49 -340 0
-49 -341 0
-340 -341 0
49 340 341 0
c gate 342 -50 -341 0
-50 -342 0
-341 -342 0
50 341 342 0
c gate 343 290 -342 0
290 -343 0
-342 -343 0
-290 342 343 0
c gate 344 252 -343 0
252 -344 0
-343 -344 0
-252 343 344 0
c gate 345 295 -344 0
295 -345 0
-344 -345 0
-295 344 345 0
c gate 346 250 -345 0
250 -346 0
-345 -346 0
-250 345 346 0
c gate 347 248 -346 0
248 -347 0
-346 -347 0
-248 346 347 0
c gate 348 243 -347 0
243 -348 0
-347 -348 0
-243 347 348 0
c gate 349 -67 -348 0
-67 -349 0
-348 -349 0
67 348 349 0
c gate 350 -68 -349 0
-68 -350 0
-349 -350 0
68 349 350 0
c gate 351 -69 -350 0
-69 -351 0
-350 -351 0
69 350 351 0
c gate 352 -70 -351 0
-70 -352 0
-351 -352 0
70 351 352 0
c gate 353 239 -352 0
239 -353 0
-352 -353 0
-239 352 353 0
c gate 354 234 -353 0
234 -354 0
-353 -354 0
-234 353 354 0
c gate 355 230 -354 0
230 -355 0
-354 -355 0
-230 354 355 0
c gate 356 227 -355 0
227 -356 0
-355 -356 0
-227 355 356 0
c gate 357 225 -356 0
225 -357 0
-356 -357 0
-225 356 357 0
c gate 358 220 -357 0
220 -358 0
-357 -358 0
-220 357 358 0
c gate 359 216 -358 0
216 -359 0
-358 -359 0
-216 358 359 0
c gate 360 213 -359 0
213 -360 0
-359 -360 0
-213 359 360 0
c gate 361 211 -360 0
211 -361 0
-360 -361 0
-211 360 361 0
c gate 362 316 -361 0
316 -362 0
-361 -362 0
-316 361 362 0
c gate 363 320 -362 0
320 -363 0
-362 -363 0
-320 362 363 0
c gate 364 206 -363 0
206 -364 0
-363 -364 0
-206 363 364 0
c gate 365 204 -364 0
204 -365 0
-364 -365 0
-204 364 365 0
c gate 366 199 -365 0
199 -366 0
-365 -366 0
-199 365 366 0
c gate 367 195 -366 0
195 -367 0
-366 -367 0
-195 366 367 0
c gate 368 337 -367 0
337 -368 0
-367 -368 0
-337 367 368 0
c gate 369 127 -128 0
127 -369 0
-128 -369 0
-127 128 369 0
c gate 370 -3 -369 0
-3 -370 0
-369 -370 0
3 369 370 0
c gate 371 -4 -370 0
-4 -371 0
-370 -371 0
4 370 371 0
c gate 372 -5 -371 0
-5 -372 0
-371 -372 0
5 371 372 0
c gate 373 -6 -372 0
-6 -373 0
-372 -373 0
6 372 373 0
c gate 374 -7 -373 0
-7 -374 0
-373 -374 0
7 373 374 0
c gate 375 -8 -374 0
-8 -375 0
-374 -375 0
8 374 375 0
c gate 376 -9 -375 0
-9 -376 0
-375 -376 0
9 375 376 0
c gate 377 -10 -376 0
-10 -377 0
-376 -377 0
10 376 377 0
c gate 378 -11 -377 0
-11 -378 0
-377 -378 0
11 377 378 0
c gate 379 168 -378 0
168 -379 0
-378 -379 0
-168 378 379 0
c gate 380 14 -15 0
14 -380 0
-15 -380 0
-14 15 380 0
c gate 381 -16 -380 0
-16 -381 0
-380 -381 0
16 380 381 0
c gate 382 -379 381 0
-379 -382 0
381 -382 0
379 -381 382 0
c gate 383 131 -382 0
131 -383 0
-382 -383 0
-131 382 383 0
c gate 384 18 -19 0
18 -384 0
-19 -384 0
-18 19 384 0
c gate 385 -20 -384 0
-20 -385 0
-384 -385 0
20 384 385 0
c gate 386 -383 385 0
-383 -386 0
385 -386 0
383 -385 386 0
c gate 387 -21 -386 0
-21 -387 0
-386 -387 0
21 386 387 0
c gate 388 -22 -387 0
-22 -388 0
-387 -388 0
22 387 388 0
c gate 389 137 152 0
137 -389 0
152 -389 0
-137 -152 389 0
c gate 390 -388 389 0
-388 -390 0
389 -390 0
388 -389 390 0
c gate 391 25 -26 0
25 -391 0
-26 -391 0
-25 26 391 0
c gate 392 -27 -391 0
-27 -392 0
-391 -392 0
27 391 392 0
c gate 393 -390 392 0
-390 -393 0
392 -393 0
390 -392 393 0
c gate 394 161 -393 0
161 -394 0
-393 -394 0
-161 393 394 0
c gate 395 181 -394 0
181 -395 0
-394 -395 0
-181 394 395 0
c gate 396 -368 395 0
-368 -396 0
395 -396 0
368 -395 396 0
c gate 397 339 396 0
339 -397 0
396 -397 0
-339 -396 397 0
c gate 398 -339 -396 0
-339 -398 0
-396 -398 0
339 396 398 0
c gate 399 29 -30 0
29 -399 0
-30 -399 0
-29 30 399 0
c gate 400 -31 -399 0
-31 -400 0
-399 -400 0
31 399 400 0
c gate 401 -398 400 0
-398 -401 0
400 -401 0
398 -400 401 0
c gate 402 -397 401 0
-397 -402 0
401 -402 0
397 -401 402 0
c gate 403 -25 -157 0
-25 -403 0
-157 -403 0
25 157 403 0
c gate 404 -27 -403 0
-27 -404 0
-403 -404 0
27 403 404 0
c gate 405 173 -177 0
173 -405 0
-177 -405 0
-173 177 405 0
c gate 406 176 -405 0
176 -406 0
-405 -406 0
-176 405 406 0
c gate 407 170 -406 0
170 -407 0
-406 -407 0
-170 406 407 0
c gate 408 169 -407 0
169 -408 0
-407 -408 0
-169 407 408 0
c gate 409 167 -408 0
167 -409 0
-408 -409 0
-167 408 409 0
c gate 410 166 -409 0
166 -410 0
-409 -410 0
-166 409 410 0
c gate 411 129 -410 0
129 -411 0
-410 -411 0
-129 410 411 0
c gate 412 130 -411 0
130 -412 0
-411 -412 0
-130 411 412 0
c gate 413 131 180 0
131 -413 0
180 -413 0
-131 -180 413 0
c gate 414 182 200 0
182 -414 0
200 -414 0
-182 -200 414 0
c gate 415 165 414 0
165 -415 0
414 -415 0
-165 -414 415 0
c gate 416 -203 415 0
-203 -416 0
415 -416 0
203 -415 416 0
c gate 417 194 -416 0
194 -417 0
-416 -417 0
-194 416 417 0
c gate 418 -318 417 0
-318 -418 0
417 -418 0
318 -417 418 0
c gate 419 201 -418 0
201 -419 0
-418 -419 0
-201 418 419 0
c gate 420 -320 415 0
-320 -420 0
415 -420 0
320 -415 420 0
c gate 421 417 -420 0
417 -421 0
-420 -421 0
-417 420 421 0
c gate 422 165 214 0
165 -422 0
214 -422 0
-165 -214 422 0
c gate 423 244 -245 0
244 -423 0
-245 -423 0
-244 245 423 0
c gate 424 -67 -68 0
-67 -424 0
-68 -424 0
67 68 424 0
c gate 425 238 424 0
238 -425 0
424 -425 0
-238 -424 425 0
c gate 426 -423 425 0
-423 -426 0
425 -426 0
423 -425 426 0
c gate 427 235 -426 0
235 -427 0
-426 -427 0
-235 426 427 0
c gate 428 236 -427 0
236 -428 0
-427 -428 0
-236 427 428 0
c gate 429 229 -428 0
229 -429 0
-428 -429 0
-229 428 429 0
c gate 430 228 -429 0
228 -430 0
-429 -430 0
-228 429 430 0
c gate 431 222 -430 0
222 -431 0
-430 -431 0
-222 430 431 0
c gate 432 221 -431 0
221 -432 0
-431 -432 0
-221 431 432 0
c gate 433 224 -432 0
224 -433 0
-432 -433 0
-224 432 433 0
c gate 434 215 -433 0
215 -434 0
-433 -434 0
-215 433 434 0
c gate 435 422 -434 0
422 -435 0
-434 -435 0
-422 434 435 0
c gate 436 207 -435 0
207 -436 0
-435 -436 0
-207 435 436 0
c gate 437 209 -436 0
209 -437 0
-436 -437 0
-209 436 437 0
c gate 438 208 -437 0
208 -438 0
-437 -438 0
-208 437 438 0
c gate 439 421 -438 0
421 -439 0
-438 -439 0
-421 438 439 0
c gate 440 419 -439 0
419 -440 0
-439 -440 0
-419 439 440 0
c gate 441 200 -440 0
200 -441 0
-440 -441 0
-200 440 441 0
c gate 442 182 -441 0
182 -442 0
-441 -442 0
-182 441 442 0
c gate 443 192 -442 0
192 -443 0
-442 -443 0
-192 442 443 0
c gate 444 191 -443 0
191 -444 0
-443 -444 0
-191 443 444 0
c gate 445 186 -444 0
186 -445 0
-444 -445 0
-186 444 445 0
c gate 446 187 -445 0
187 -446 0
-445 -446 0
-187 445 446 0
c gate 447 184 -446 0
184 -447 0
-446 -447 0
-184 446 447 0
c gate 448 183 -447 0
183 -448 0
-447 -448 0
-183 447 448 0
c gate 449 413 -448 0
413 -449 0
-448 -449 0
-413 448 449 0
c gate 450 412 -449 0
412 -450 0
-449 -450 0
-412 449 450 0
c gate 451 -25 -450 0
-25 -451 0
-450 -451 0
25 450 451 0
c gate 452 157 -451 0
157 -452 0
-451 -452 0
-157 451 452 0
c gate 453 404 -452 0
404 -453 0
-452 -453 0
-404 452 453 0
c gate 454 -25 27 0
-25 -454 0
27 -454 0
25 -27 454 0
c gate 455 157 454 0
157 -455 0
454 -455 0
-157 -454 455 0
c gate 456 450 455 0
450 -456 0
455 -456 0
-450 -455 456 0
c gate 457 -23 -456 0
-23 -457 0
-456 -457 0
23 456 457 0
c gate 458 -453 457 0
-453 -458 0
457 -458 0
453 -457 458 0
c gate 459 207 422 0
207 -459 0
422 -459 0
-207 -422 459 0
c gate 460 215 225 0
215 -460 0
225 -460 0
-215 -225 460 0
c gate 461 459 460 0
459 -461 0
460 -461 0
-459 -460 461 0
c gate 462 -69 -70 0
-69 -462 0
-70 -462 0
69 70 462 0
c gate 463 238 462 0
238 -463 0
462 -463 0
-238 -462 463 0
c gate 464 244 424 0
244 -464 0
424 -464 0
-244 -424 464 0
c gate 465 463 464 0
463 -465 0
464 -465 0
-463 -464 465 0
c gate 466 -49 -50 0
-49 -466 0
-50 -466 0
49 50 466 0
c gate 467 -43 -44 0
-43 -467 0
-44 -467 0
43 44 467 0
c gate 468 -13 -24 0
-13 -468 0
-24 -468 0
13 24 468 0
c gate 469 -96 -107 0
-96 -469 0
-107 -469 0
96 107 469 0
c gate 470 -74 -85 0
-74 -470 0
-85 -470 0
74 85 470 0
c gate 471 -52 -63 0
-52 -471 0
-63 -471 0
52 63 471 0
c gate 472 470 -471 0
470 -472 0
-471 -472 0
-470 471 472 0
c gate 473 469 -472 0
469 -473 0
-472 -473 0
-469 472 473 0
c gate 474 255 467 0
255 -474 0
467 -474 0
-255 -467 474 0
c gate 475 -247 464 0
-247 -475 0
464 -475 0
247 -464 475 0
c gate 476 -474 -475 0
-474 -476 0
-475 -476 0
474 475 476 0
c gate 477 260 -476 0
260 -477 0
-476 -477 0
-260 476 477 0
c gate 478 295 424 0
295 -478 0
424 -478 0
-295 -424 478 0
c gate 479 248 478 0
248 -479 0
478 -479 0
-248 -478 479 0
c gate 480 463 479 0
463 -480 0
479 -480 0
-463 -479 480 0
c gate 481 256 466 0
256 -481 0
466 -481 0
-256 -466 481 0
c gate 482 290 481 0
290 -482 0
481 -482 0
-290 -481 482 0
c gate 483 -2 -118 0
-2 -483 0
-118 -483 0
2 118 483 0
c gate 484 468 483 0
468 -484 0
483 -484 0
-468 -483 484 0
c gate 485 263 484 0
263 -485 0
484 -485 0
-263 -484 485 0
c gate 486 482 485 0
482 -486 0
485 -486 0
-482 -485 486 0
c gate 487 480 486 0
480 -487 0
486 -487 0
-480 -486 487 0
c gate 488 477 487 0
477 -488 0
487 -488 0
-477 -487 488 0
c gate 489 -473 488 0
-473 -489 0
488 -489 0
473 -488 489 0
c gate 490 468 -489 0
468 -490 0
-489 -490 0
-468 489 490 0
c gate 491 262 -490 0
262 -491 0
-490 -491 0
-262 490 491 0
c gate 492 261 -491 0
261 -492 0
-491 -492 0
-261 491 492 0
c gate 493 259 -492 0
259 -493 0
-492 -493 0
-259 492 493 0
c gate 494 258 -493 0
258 -494 0
-493 -494 0
-258 493 494 0
c gate 495 467 -494 0
467 -495 0
-494 -495 0
-467 494 495 0
c gate 496 255 -495 0
255 -496 0
-495 -496 0
-255 495 496 0
c gate 497 256 -496 0
256 -497 0
-496 -497 0
-256 496 497 0
c gate 498 466 -497 0
466 -498 0
-497 -498 0
-466 497 498 0
c gate 499 290 480 0
290 -499 0
480 -499 0
-290 -480 499 0
c gate 500 -498 499 0
-498 -500 0
499 -500 0
498 -499 500 0
c gate 501 -288 480 0
-288 -501 0
480 -501 0
288 -480 501 0
c gate 502 246 -293 0
246 -502 0
-293 -502 0
-246 293 502 0
c gate 503 245 -502 0
245 -503 0
-502 -503 0
-245 502 503 0
c gate 504 -501 503 0
-501 -504 0
503 -504 0
501 -503 504 0
c gate 505 -500 504 0
-500 -505 0
504 -505 0
500 -504 505 0
c gate 506 465 -505 0
465 -506 0
-505 -506 0
-465 505 506 0
c gate 507 -424 462 0
-424 -507 0
462 -507 0
424 -462 507 0
c gate 508 238 -507 0
238 -508 0
-507 -508 0
-238 507 508 0
c gate 509 -506 508 0
-506 -509 0
508 -509 0
506 -508 509 0
c gate 510 230 235 0
230 -510 0
235 -510 0
-230 -235 510 0
c gate 511 -509 510 0
-509 -511 0
510 -511 0
509 -510 511 0
c gate 512 229 -236 0
229 -512 0
-236 -512 0
-229 236 512 0
c gate 513 228 -512 0
228 -513 0
-512 -513 0
-228 512 513 0
c gate 514 -511 513 0
-511 -514 0
513 -514 0
511 -513 514 0
c gate 515 461 -514 0
461 -515 0
-514 -515 0
-461 514 515 0
c gate 516 -221 224 0
-221 -516 0
224 -516 0
221 -224 516 0
c gate 517 459 516 0
459 -517 0
516 -517 0
-459 -516 517 0
c gate 518 215 -517 0
215 -518 0
-517 -518 0
-215 517 518 0
c gate 519 -515 518 0
-515 -519 0
518 -519 0
515 -518 519 0
c gate 520 422 -519 0
422 -520 0
-519 -520 0
-422 519 520 0
c gate 521 207 -520 0
207 -521 0
-520 -521 0
-207 520 521 0
c gate 522 201 210 0
201 -522 0
210 -522 0
-201 -210 522 0
c gate 523 421 522 0
421 -523 0
522 -523 0
-421 -522 523 0
c gate 524 -521 523 0
-521 -524 0
523 -524 0
521 -523 524 0
c gate 525 -208 421 0
-208 -525 0
421 -525 0
208 -421 525 0
c gate 526 419 -525 0
419 -526 0
-525 -526 0
-419 525 526 0
c gate 527 -524 526 0
-524 -527 0
526 -527 0
524 -526 527 0
c gate 528 200 -527 0
200 -528 0
-527 -528 0
-200 527 528 0
c gate 529 182 -528 0
182 -529 0
-528 -529 0
-182 528 529 0
c gate 530 192 -529 0
192 -530 0
-529 -530 0
-192 529 530 0
c gate 531 191 -530 0
191 -531 0
-530 -531 0
-191 530 531 0
c gate 532 186 -531 0
186 -532 0
-531 -532 0
-186 531 532 0
c gate 533 187 -532 0
187 -533 0
-532 -533 0
-187 532 533 0
c gate 534 184 -533 0
184 -534 0
-533 -534 0
-184 533 534 0
c gate 535 183 -534 0
183 -535 0
-534 -535 0
-183 534 535 0
c gate 536 413 -535 0
413 -536 0
-535 -536 0
-413 535 536 0
c gate 537 412 -536 0
412 -537 0
-536 -537 0
-412 536 537 0
c gate 538 -25 -537 0
-25 -538 0
-537 -538 0
25 537 538 0
c gate 539 157 -538 0
157 -539 0
-538 -539 0
-157 538 539 0
c gate 540 404 -539 0
404 -540 0
-539 -540 0
-404 539 540 0
c gate 541 455 537 0
455 -541 0
537 -541 0
-455 -537 541 0
c gate 542 -23 -541 0
-23 -542 0
-541 -542 0
23 541 542 0
c gate 543 -540 542 0
-540 -543 0
542 -543 0
540 -542 543 0
c gate 544 -458 543 0
-458 -544 0
543 -544 0
458 -543 544 0
c gate 545 458 -543 0
458 -545 0
-543 -545 0
-458 543 545 0
c gate 546 -544 -545 0
-544 -546 0
-545 -546 0
544 545 546 0
c gate 547 28 33 0
28 -547 0
33 -547 0
-28 -33 547 0
c gate 548 -160 -547 0
-160 -548 0
-547 -548 0
160 547 548 0
c gate 549 23 -137 0
23 -549 0
-137 -549 0
-23 137 549 0
c gate 550 -21 159 0
-21 -550 0
159 -550 0
21 -159 550 0
c gate 551 -549 550 0
-549 -551 0
550 -551 0
549 -550 551 0
c gate 552 -548 551 0
-548 -552 0
551 -552 0
548 -551 552 0
c gate 553 -546 552 0
-546 -553 0
552 -553 0
546 -552 553 0
c gate 554 -32 -553 0
-32 -554 0
-553 -554 0
32 553 554 0
c gate 555 -402 554 0
-402 -555 0
554 -555 0
402 -554 555 0
c gate 556 -29 159 0
-29 -556 0
159 -556 0
29 -159 556 0
c gate 557 339 -556 0
339 -557 0
-556 -557 0
-339 556 557 0
c gate 558 32 -557 0
32 -558 0
-557 -558 0
-32 557 558 0
c gate 559 -33 -558 0
-33 -559 0
-558 -559 0
33 558 559 0
c gate 560 -555 559 0
-555 -560 0
559 -560 0
555 -559 560 0
c gate 561 172 -179 0
172 -561 0
-179 -561 0
-172 179 561 0
c gate 562 194 415 0
194 -562 0
415 -562 0
-194 -415 562 0
c gate 563 415 421 0
415 -563 0
421 -563 0
-415 -421 563 0
c gate 564 211 214 0
211 -564 0
214 -564 0
-211 -214 564 0
c gate 565 563 564 0
563 -565 0
564 -565 0
-563 -564 565 0
c gate 566 -461 565 0
-461 -566 0
565 -566 0
461 -565 566 0
c gate 567 421 -566 0
421 -567 0
-566 -567 0
-421 566 567 0
c gate 568 562 -567 0
562 -568 0
-567 -568 0
-562 567 568 0
c gate 569 172 189 0
172 -569 0
189 -569 0
-172 -189 569 0
c gate 570 158 -569 0
158 -570 0
-569 -570 0
-158 569 570 0
c gate 571 180 237 0
180 -571 0
237 -571 0
-180 -237 571 0
c gate 572 230 571 0
230 -572 0
571 -572 0
-230 -571 572 0
c gate 573 461 572 0
461 -573 0
572 -573 0
-461 -572 573 0
c gate 574 -477 482 0
-477 -574 0
482 -574 0
477 -482 574 0
c gate 575 479 -574 0
479 -575 0
-574 -575 0
-479 574 575 0
c gate 576 -488 575 0
-488 -576 0
575 -576 0
488 -575 576 0
c gate 577 465 -576 0
465 -577 0
-576 -577 0
-465 576 577 0
c gate 578 573 -577 0
573 -578 0
-577 -578 0
-573 577 578 0
c gate 579 565 578 0
565 -579 0
578 -579 0
-565 -578 579 0
c gate 580 -570 -579 0
-570 -580 0
-579 -580 0
570 579 580 0
c gate 581 -568 580 0
-568 -581 0
580 -581 0
568 -580 581 0
c gate 582 -561 -581 0
-561 -582 0
-581 -582 0
561 581 582 0
c gate 583 164 -582 0
164 -583 0
-582 -583 0
-164 582 583 0
c gate 584 464 -575 0
464 -584 0
-575 -584 0
-464 575 584 0
c gate 585 572 -584 0
572 -585 0
-584 -585 0
-572 584 585 0
c gate 586 460 -585 0
460 -586 0
-585 -586 0
-460 585 586 0
c gate 587 158 564 0
158 -587 0
564 -587 0
-158 -564 587 0
c gate 588 -586 587 0
-586 -588 0
587 -588 0
586 -587 588 0
c gate 589 421 -588 0
421 -589 0
-588 -589 0
-421 588 589 0
c gate 590 180 562 0
180 -590 0
562 -590 0
-180 -562 590 0
c gate 591 -589 590 0
-589 -591 0
590 -591 0
589 -590 591 0
c gate 592 172 -190 0
172 -592 0
-190 -592 0
-172 190 592 0
c gate 593 158 -592 0
158 -593 0
-592 -593 0
-158 592 593 0
c gate 594 164 -593 0
164 -594 0
-593 -594 0
-164 593 594 0
c gate 595 -591 594 0
-591 -595 0
594 -595 0
591 -594 595 0
c gate 596 583 -595 0
583 -596 0
-595 -596 0
-583 595 596 0
c gate 597 -583 595 0
-583 -597 0
595 -597 0
583 -595 597 0
c gate 598 215 224 0
215 -598 0
224 -598 0
-215 -224 598 0
c gate 599 260 -263 0
260 -599 0
-263 -599 0
-260 263 599 0
c gate 600 474 -599 0
474 -600 0
-599 -600 0
-474 599 600 0
c gate 601 481 -600 0
481 -601 0
-600 -601 0
-481 600 601 0
c gate 602 290 -601 0
290 -602 0
-601 -602 0
-290 601 602 0
c gate 603 479 -602 0
479 -603 0
-602 -603 0
-479 602 603 0
c gate 604 -475 -603 0
-475 -604 0
-603 -604 0
475 603 604 0
c gate 605 571 -604 0
571 -605 0
-604 -605 0
-571 604 605 0
c gate 606 230 -605 0
230 -606 0
-605 -606 0
-230 605 606 0
c gate 607 223 -606 0
223 -607 0
-606 -607 0
-223 606 607 0
c gate 608 598 -607 0
598 -608 0
-607 -608 0
-598 607 608 0
c gate 609 459 -608 0
459 -609 0
-608 -609 0
-459 608 609 0
c gate 610 210 -609 0
210 -610 0
-609 -610 0
-210 609 610 0
c gate 611 563 -610 0
563 -611 0
-610 -611 0
-563 610 611 0
c gate 612 417 -611 0
417 -612 0
-611 -612 0
-417 611 612 0
c gate 613 469 470 0
469 -613 0
470 -613 0
-469 -470 613 0
c gate 614 488 -613 0
488 -614 0
-613 -614 0
-488 613 614 0
c gate 615 463 604 0
463 -615 0
604 -615 0
-463 -604 615 0
c gate 616 -614 615 0
-614 -616 0
615 -616 0
614 -615 616 0
c gate 617 571 -616 0
571 -617 0
-616 -617 0
-571 616 617 0
c gate 618 230 -617 0
230 -618 0
-617 -618 0
-230 617 618 0
c gate 619 223 -618 0
223 -619 0
-618 -619 0
-223 618 619 0
c gate 620 598 -619 0
598 -620 0
-619 -620 0
-598 619 620 0
c gate 621 565 -620 0
565 -621 0
-620 -621 0
-565 620 621 0
c gate 622 -210 320 0
-210 -622 0
320 -622 0
210 -320 622 0
c gate 623 562 622 0
562 -623 0
622 -623 0
-562 -622 623 0
c gate 624 417 -623 0
417 -624 0
-623 -624 0
-417 623 624 0
c gate 625 -621 624 0
-621 -625 0
624 -625 0
621 -624 625 0
c gate 626 612 -625 0
612 -626 0
-625 -626 0
-612 625 626 0
c gate 627 -612 625 0
-612 -627 0
625 -627 0
612 -625 627 0
c gate 628 -626 -627 0
-626 -628 0
-627 -628 0
626 627 628 0
c gate 629 181 189 0
181 -629 0
189 -629 0
-181 -189 629 0
c gate 630 -628 629 0
-628 -630 0
629 -630 0
628 -629 630 0
c gate 631 -1 -41 0
-1 -631 0
-41 -631 0
1 41 631 0
c gate 632 471 631 0
471 -632 0
631 -632 0
-471 -631 632 0
c gate 633 210 632 0
210 -633 0
632 -633 0
-210 -632 633 0
c gate 634 613 633 0
613 -634 0
633 -634 0
-613 -633 634 0
c gate 635 488 634 0
488 -635 0
634 -635 0
-488 -634 635 0
c gate 636 573 635 0
573 -636 0
635 -636 0
-573 -635 636 0
c gate 637 563 636 0
563 -637 0
636 -637 0
-563 -636 637 0
c gate 638 -463 479 0
-463 -638 0
479 -638 0
463 -479 638 0
c gate 639 573 638 0
573 -639 0
638 -639 0
-573 -638 639 0
c gate 640 -97 98 0
-97 -640 0
98 -640 0
97 -98 640 0
c gate 641 -314 -640 0
-314 -641 0
-640 -641 0
314 640 641 0
c gate 642 -639 641 0
-639 -642 0
641 -642 0
639 -641 642 0
c gate 643 180 565 0
180 -643 0
565 -643 0
-180 -565 643 0
c gate 644 -642 643 0
-642 -644 0
643 -644 0
642 -643 644 0
c gate 645 -637 -644 0
-637 -645 0
-644 -645 0
637 644 645 0
c gate 646 -630 645 0
-630 -646 0
645 -646 0
630 -645 646 0
c gate 647 -597 646 0
-597 -647 0
646 -647 0
597 -646 647 0
c gate 648 -596 647 0
-596 -648 0
647 -648 0
596 -647 648 0
c gate 649 -560 648 0
-560 -649 0
648 -649 0
560 -648 649 0
c PO
-649 0
